[runlim] version:		1.10
[runlim] time limit:		311040000 seconds
[runlim] real time limit:	600 seconds
[runlim] space limit:		14000 MB
[runlim] argv[0]:		python3
[runlim] argv[1]:		-u
[runlim] argv[2]:		mip.py
[runlim] argv[3]:		scen09
[runlim] start:			Tue Jan 20 14:59:49 2026
[runlim] main pid:		73458
Building MIP model...
Build time: 5.85s
Solving MIP (minimizing number of labels)...
Version identifier: 22.1.1.0 | 2022-11-28 | 9160aff4d
CPXPARAM_Read_DataCheck                          1
Legacy callback                                  i
Infeasibility row 'c63':  0  = 1.
Presolve time = 0.01 sec. (11.10 ticks)

Root node processing (before b&c):
  Real time             =    0.01 sec. (15.63 ticks)
Parallel b&c, 12 threads:
  Real time             =    0.00 sec. (0.00 ticks)
  Sync time (average)   =    0.00 sec.
  Wait time (average)   =    0.00 sec.
                          ------------
Total (root+branch&cut) =    0.01 sec. (15.63 ticks)
CPLEX Error  1217: No solution exists.
No solution found.
[runlim] end:			Tue Jan 20 14:59:54 2026
[runlim] status:		ok
[runlim] result:		0
[runlim] children:		0
[runlim] real:			5.99 seconds
[runlim] time:			5.89 seconds
[runlim] space:			30.9 MB
[runlim] samples:		59
